p cnf 25 155
2 -3 1 -4 5 0
-15 13 11 -12 14 0
-7 -9 10 6 8 0
20 16 -17 19 18 0
19 18 20 -17 -16 0
12 -15 -14 13 11 0
25 21 -22 24 -23 0
-4 -2 -1 -5 -3 0
9 -10 -7 -8 -6 0
-21 -23 24 -25 22 0
-5 1 2 4 -3 0
-22 24 -25 21 -23 0
-12 14 -15 -11 13 0
14 11 12 13 15 0
-11 8 19 -2 23 0
-6 7 9 -10 8 0
10 8 9 7 6 0
-17 20 18 16 -19 0
4 -5 1 2 3 0
24 -21 25 -22 23 0
1 -2 3 -4 5 0
-22 -21 -24 -23 -25 0
-2 4 -3 -1 -5 0
24 -23 -25 22 21 0
18 -19 -16 -17 -20 0
21 22 25 -24 -23 0
-7 -8 -9 6 10 0
10 -7 -9 -6 -8 0
-13 -12 14 15 -11 0
13 -12 15 -14 -11 0
-18 19 20 16 17 0
9 -7 6 -8 -10 0
25 -23 -24 -21 -22 0
-13 12 -15 -11 -14 0
25 -24 23 -22 -21 0
1 -2 -3 -4 -5 0
13 14 -11 -12 15 0
12 -11 13 15 14 0
4 -3 5 -1 -2 0
11 -12 -13 14 -15 0
19 18 20 17 16 0
4 -19 6 -23 14 0
2 1 3 4 5 0
12 13 -14 15 11 0
-4 -1 3 -5 2 0
22 -21 25 -24 -23 0
3 2 4 -1 5 0
-24 23 -21 -25 22 0
21 22 23 -24 -25 0
19 -16 17 18 -20 0
-12 11 -13 15 14 0
18 19 17 -20 16 0
18 20 17 -19 16 0
20 16 -18 17 -19 0
2 4 -5 -1 -3 0
-21 23 24 -25 22 0
7 6 -8 -10 -9 0
16 -20 19 -18 17 0
-3 2 4 5 1 0
-9 8 -7 -10 -6 0
-14 -15 11 12 -13 0
-13 -12 -11 14 -15 0
24 25 21 23 22 0
-6 -9 7 8 10 0
21 -24 25 23 22 0
-13 -14 -15 -11 -12 0
-6 -8 9 10 -7 0
18 -16 17 20 -19 0
-20 -18 17 -19 16 0
12 -11 14 13 -15 0
-6 -8 -9 7 -10 0
15 -11 14 12 -13 0
17 -18 20 19 -16 0
11 -15 -13 12 14 0
23 -25 -22 -21 -24 0
18 16 -20 -19 -17 0
3 -1 2 -5 4 0
8 -7 -10 -9 6 0
25 5 18 -12 -6 0
-24 -23 21 -22 25 0
-20 -17 -18 19 16 0
1 3 -2 -5 4 0
-1 4 5 -3 2 0
15 -13 -14 -11 -12 0
-13 15 11 14 12 0
3 -5 1 2 -4 0
8 10 7 -9 6 0
16 -18 -19 -20 -17 0
-14 -15 -12 -11 13 0
23 24 -22 21 25 0
-3 2 -5 -4 1 0
-7 -9 -8 -10 -6 0
-25 -22 -24 21 23 0
-4 5 2 3 1 0
5 2 -3 -4 -1 0
19 -20 18 -17 -16 0
10 9 -6 -7 8 0
-11 -13 -15 12 14 0
3 -4 5 -1 2 0
-14 11 -12 -13 15 0
6 -9 -10 -7 -8 0
22 -21 -25 -24 -23 0
2 -8 -19 -14 24 0
-19 17 -20 -16 18 0
-9 -8 10 7 -6 0
16 20 -19 -17 -18 0
-10 9 7 -6 -8 0
8 9 7 -6 10 0
-23 25 22 21 24 0
-23 22 -21 25 24 0
25 -17 2 15 9 0
-5 -4 2 -1 -3 0
-8 9 6 7 10 0
19 -16 -20 -18 -17 0
-9 -6 7 8 -10 0
10 9 -7 6 -8 0
-5 -17 15 -8 23 0
-18 -19 -16 -20 -17 0
7 6 9 8 -10 0
23 25 24 22 -21 0
-14 -11 13 15 12 0
8 -10 6 7 -9 0
21 16 -9 15 -2 0
6 7 10 -8 -9 0
-14 13 11 -12 -15 0
-16 17 -19 -18 20 0
-7 -6 -10 8 9 0
-24 23 -22 21 25 0
-11 -15 12 13 -14 0
-6 8 -7 10 -9 0
11 15 -12 13 -14 0
-14 -12 -15 11 -13 0
-3 4 1 5 -2 0
-14 -23 -18 7 -5 0
-3 -2 -4 -1 5 0
7 9 -6 10 -8 0
15 14 11 13 -12 0
-1 17 8 21 12 0
-2 3 1 -4 -5 0
16 17 -19 18 -20 0
4 -2 -1 3 5 0
-23 22 -24 -25 21 0
-17 -16 20 18 -19 0
9 -23 -20 13 -3 0
-23 -21 -22 24 25 0
4 -1 3 -5 -2 0
-1 3 -2 -4 5 0
24 -23 -25 -22 -21 0
-3 20 8 -24 -12 0
10 6 9 -7 8 0
-25 23 22 24 21 0
12 -11 -14 -13 15 0
-11 16 -23 -1 10 0
19 16 -18 -17 20 0
1 -2 4 -5 -3 0
